300
300 300
1 240 95
2 240 332
3 239 467
4 237 204
5 237 225
6 236 275
7 235 587
8 235 800
9 234 855
10 234 96
11 233 492
12 229 785
13 229 747
14 229 668
15 228 953
16 226 802
17 226 274
18 226 126
19 224 438
20 223 691
21 223 553
22 222 981
23 222 641
24 220 875
25 219 645
26 218 441
27 218 235
28 217 372
29 216 337
30 215 119
31 215 329
32 214 448
33 214 97
34 211 311
35 210 525
36 210 147
37 209 973
38 209 411
39 209 537
40 208 478
41 208 343
42 207 965
43 207 937
44 207 897
45 207 15
46 205 894
47 204 623
48 204 690
49 203 113
50 201 611
51 200 55
52 200 340
53 200 889
54 200 914
55 200 300
56 199 940
57 199 809
58 199 680
59 195 557
60 195 891
61 195 18
62 191 411
63 190 397
64 190 925
65 190 43
66 190 345
67 189 734
68 189 661
69 189 684
70 187 235
71 187 568
72 186 177
73 186 510
74 186 322
75 185 875
76 185 733
77 183 223
78 182 121
79 181 858
80 180 689
81 180 591
82 179 123
83 179 326
84 179 873
85 179 437
86 178 869
87 177 223
88 176 865
89 176 198
90 175 806
91 175 629
92 174 281
93 174 238
94 173 116
95 170 488
96 170 535
97 170 997
98 170 90
99 170 650
100 169 987
101 169 324
102 168 247
103 168 293
104 167 61
105 167 503
106 167 71
107 166 560
108 166 904
109 165 146
110 165 707
111 165 246
112 164 426
113 162 518
114 162 147
115 161 516
116 161 725
117 160 66
118 160 950
119 160 581
120 158 259
121 157 711
122 157 965
123 157 393
124 157 576
125 156 187
126 155 554
127 154 352
128 154 420
129 153 382
130 152 501
131 151 309
132 150 345
133 150 952
134 150 247
135 150 59
136 149 395
137 149 538
138 147 190
139 147 792
140 147 661
141 146 602
142 146 714
143 145 524
144 144 825
145 141 781
146 140 593
147 140 777
148 140 951
149 140 999
150 140 665
151 139 668
152 139 634
153 139 962
154 139 333
155 137 392
156 137 359
157 137 246
158 136 36
159 135 625
160 135 714
161 135 881
162 134 879
163 134 244
164 133 907
165 132 951
166 131 818
167 130 350
168 130 126
169 130 318
170 129 68
171 127 233
172 126 901
173 125 244
174 124 428
175 123 941
176 122 901
177 122 102
178 122 7
179 121 42
180 121 715
181 119 87
182 119 283
183 119 159
184 119 816
185 118 1000
186 118 599
187 118 966
188 117 848
189 117 15
190 116 933
191 115 761
192 115 474
193 114 310
194 113 456
195 113 959
196 113 350
197 113 201
198 113 493
199 112 970
200 111 181
201 111 538
202 110 473
203 110 762
204 110 994
205 109 497
206 109 543
207 108 835
208 108 370
209 108 736
210 107 779
211 106 317
212 106 801
213 106 599
214 105 129
215 105 491
216 105 857
217 104 238
218 102 0
219 102 841
220 102 766
221 101 172
222 101 923
223 100 23
224 100 289
225 100 448
226 99 294
227 99 644
228 98 521
229 96 47
230 96 290
231 95 488
232 93 212
233 93 895
234 92 108
235 92 220
236 91 810
237 91 538
238 90 881
239 90 275
240 89 157
241 88 521
242 88 881
243 87 145
244 87 676
245 87 940
246 86 717
247 86 145
248 86 731
249 85 583
250 84 244
251 84 846
252 84 905
253 83 744
254 83 766
255 80 229
256 80 140
257 80 859
258 79 840
259 79 659
260 79 112
261 79 666
262 78 286
263 78 14
264 78 56
265 78 611
266 76 365
267 76 492
268 76 895
269 76 293
270 75 922
271 74 352
272 74 854
273 74 582
274 73 839
275 73 814
276 73 704
277 73 316
278 72 872
279 72 473
280 70 812
281 70 942
282 69 784
283 69 566
284 69 654
285 68 981
286 66 351
287 65 443
288 64 321
289 64 45
290 63 123
291 63 93
292 63 603
293 62 489
294 62 443
295 61 453
296 61 713
297 61 107
298 61 154
299 60 781
300 60 655
